c Reduced graph for GEOM50 generated by Cyril Grelier
p edge 50 127
e 1 2
e 1 5
e 1 6
e 1 7
e 1 8
e 1 17
e 1 19
e 1 31
e 1 41
e 2 5
e 2 6
e 2 7
e 2 8
e 2 17
e 2 19
e 2 38
e 3 4
e 3 9
e 3 12
e 3 14
e 3 16
e 3 20
e 3 28
e 3 32
e 4 12
e 4 14
e 4 20
e 4 32
e 4 44
e 4 47
e 5 6
e 5 8
e 5 19
e 5 29
e 5 42
e 6 7
e 6 8
e 6 19
e 6 42
e 7 8
e 7 11
e 7 17
e 7 38
e 8 29
e 8 38
e 9 14
e 9 16
e 9 20
e 9 22
e 9 48
e 10 23
e 10 24
e 10 26
e 10 27
e 10 30
e 10 42
e 11 13
e 11 15
e 11 17
e 11 34
e 11 43
e 12 28
e 12 32
e 12 37
e 12 46
e 13 15
e 13 17
e 13 31
e 13 41
e 13 43
e 14 16
e 14 20
e 14 22
e 15 17
e 15 31
e 15 34
e 15 43
e 16 20
e 16 22
e 16 28
e 18 21
e 18 25
e 18 33
e 18 35
e 18 39
e 18 40
e 19 31
e 19 41
e 20 22
e 21 25
e 21 33
e 21 35
e 21 37
e 21 40
e 22 48
e 23 24
e 23 26
e 23 27
e 23 30
e 24 26
e 24 27
e 24 30
e 25 33
e 25 35
e 25 40
e 26 27
e 26 30
e 27 30
e 28 32
e 28 37
e 29 42
e 29 44
e 29 47
e 31 41
e 32 46
e 33 37
e 33 40
e 34 43
e 34 45
e 35 39
e 36 38
e 36 39
e 36 45
e 36 49
e 39 46
e 44 47
e 45 49
